2
940 943 
25
165 125 30
315 355 72
117 321 4
137 188 88
143 224 54
301 195 64
278 269 90
139 110 26
353 388 94
285 367 28
303 314 72
272 297 49
160 182 54
334 236 19
359 225 28
203 315 61
232 175 84
313 169 23
113 166 67
298 131 53
135 132 54
191 334 16
232 105 9
125 111 54
136 220 77
